lbl,CUST NO.,READY TIME,XCOORD.,YCOORD.,DEMAND,DUE DATE,SERVICE TIME
6,588,197,290,219,19,207,10
6,45,206,296,211,22,216,10
6,84,311,252,219,23,321,10
6,18,343,266,212,11,353,10
6,156,369,272,211,8,379,10
6,437,509,261,232,12,519,10
6,165,570,296,235,25,580,10
6,555,604,279,189,30,614,10
6,337,650,266,203,6,660,10
6,536,704,297,213,21,714,10
6,554,704,289,209,23,714,10
6,591,746,284,244,12,756,10
6,350,787,250,228,22,797,10
6,76,799,296,252,18,809,10
